n=12;
m=66;
E=[|6,12
|9,10
|12,6
|1,2
|8,7
|10,3
|5,6
|3,5
|12,11
|3,5
|8,10
|2,8
|1,7
|10,8
|7,10
|2,1
|2,9
|9,4
|11,10
|9,8
|4,7
|6,2
|10,4
|5,9
|2,12
|11,5
|1,4
|10,3
|1,5
|10,3
|8,11
|10,9
|7,10
|4,8
|8,5
|12,6
|10,4
|7,9
|1,3
|11,8
|8,10
|8,4
|11,1
|9,8
|8,2
|2,4
|1,9
|7,5
|6,7
|3,12
|6,12
|8,9
|12,5
|5,8
|8,5
|10,1
|3,1
|11,8
|2,8
|10,9
|11,5
|1,2
|10,9
|3,4
|2,3
|8,3
|];

